WARNING: for repeatability, setting FPU to use double precision
============================[ Problem Statistics ]=============================
|                                                                             |
|  Number of variables:        177404                                         |
|  Number of clauses:         1055410                                         |
|  Parse time:                   0.29 s                                       |
|                                                                             |
c ============================[ Search Statistics ]==============================
c | Conflicts |          ORIGINAL         |          LEARNT          | Progress |
c |           |    Vars  Clauses Literals |    Limit  Clauses Lit/Cl |          |
c ===============================================================================
c Switched to VSIDS.
c Switched to LRB.
c Switched to VSIDS.
c Switched to LRB.
c Switched to VSIDS.
c Switched to LRB.
c Switched to VSIDS.
c Switched to LRB.
c Switched to VSIDS.
c Switched to LRB.
c Switched to VSIDS.
c Switched to LRB.
c Switched to VSIDS.
c Switched to LRB.
c Switched to VSIDS.
c Switched to LRB.
c Switched to VSIDS.
c Switched to LRB.
c Switched to VSIDS.
c Switched to LRB.
c Switched to VSIDS.
c ===============================================================================
restarts                  : 12613
conflicts                 : 2875549        (2642 /sec)
decisions                 : 402811610      (0.00 % random) (370100 /sec)
propagations              : 2257952333     (2074589 /sec)
conflict literals         : 53750328       (20.70 % deleted)

conflicts w/ DIP found    : 1738513        (60.46 % of conflicts)
conflicts w/ dangerous DIP: 0              (0.00 % of conflicts)
conflicts w/ DIP-learning : 2              (0.00 % of conflicts)
decisions on ext vars     : 84             (0.00 % of decisions)
total ext vars            : 2           
tried delete ext vars     : 0           
deleted ext vars          : 0           
max ext vars              : 2           

Memory used               : 469.00 MB
CPU time                  : 1088.39 s
DIP computation time      : 17.7245 s (1.63 % of total time)
ER_sel time               : 2.65402 s
ER_add time               : 8.9e-05 s
ER_delC time              : 0 s
ER_delV time              : 0 s
ER_sub time               : 2.91002 s
ER_stat time              : 0 s

SATISFIABLE
